p tw 101 112
1 2
2 14
3 5
5 6
6 7
7 8
7 9
8 101
9 10
10 11
11 12
12 13
13 15
14 25
15 16
16 17
17 18
17 40
18 19
19 20
20 21
21 22
21 24
22 23
23 13
24 26
25 36
26 27
27 28
28 29
28 40
29 30
29 37
30 31
31 32
32 33
33 34
34 35
34 13
35 40
36 47
37 38
38 39
39 13
40 41
41 42
41 93
42 43
42 93
43 44
44 45
45 46
46 48
47 58
48 49
49 50
49 74
50 51
51 52
52 53
53 54
54 55
54 64
55 56
56 57
57 59
58 69
59 60
60 61
61 62
62 63
63 71
64 65
65 66
66 67
67 68
68 70
69 80
70 71
71 72
72 73
73 45
74 75
75 76
76 77
77 78
78 79
79 81
79 87
80 91
81 82
82 83
83 84
84 85
85 86
86 93
87 88
88 89
89 90
90 92
91 3
92 93
93 94
94 95
95 96
96 97
96 98
97 98
98 99
99 100
100 69
101 4
